data/lp_files/pEFS/122_1.lp
\ Model foo
\ LP format - for model browsing. Use MPS format to capture full model detail.
Minimize
  z
Subject To
 allocateEach[1]: x[1,1] + x[2,1] + x[3,1] + x[4,1] + x[5,1] + x[6,1]
   + x[7,1] = 1
 allocateEach[2]: x[1,2] + x[2,2] + x[3,2] + x[4,2] + x[5,2] + x[6,2]
   + x[7,2] = 1
 allocateAllCash: cashProportion[1] + cashProportion[2] + cashProportion[3]
   + cashProportion[4] + cashProportion[5] + cashProportion[6]
   + cashProportion[7] = 1
 findWorstP[1,2]: z + 0.0614590375514719 cashProportion[1]
   - 0.0614590375514719 cashProportion[2] + 0.5643168827976154 x[1,1]
   + 0.3742240796509126 x[1,2] - 0.5643168827976154 x[2,1]
   - 0.3742240796509126 x[2,2] >= 0
 findWorstP[1,3]: z + 0.0614590375514719 cashProportion[1]
   - 0.0614590375514719 cashProportion[3] + 0.5643168827976154 x[1,1]
   + 0.3742240796509126 x[1,2] - 0.5643168827976154 x[3,1]
   - 0.3742240796509126 x[3,2] >= 0
 findWorstP[1,4]: z + 0.0614590375514719 cashProportion[1]
   - 0.0614590375514719 cashProportion[4] + 0.5643168827976154 x[1,1]
   + 0.3742240796509126 x[1,2] - 0.5643168827976154 x[4,1]
   - 0.3742240796509126 x[4,2] >= 0
 findWorstP[1,5]: z + 0.0614590375514719 cashProportion[1]
   - 0.0614590375514719 cashProportion[5] + 0.5643168827976154 x[1,1]
   + 0.3742240796509126 x[1,2] - 0.5643168827976154 x[5,1]
   - 0.3742240796509126 x[5,2] >= 0
 findWorstP[1,6]: z + 0.0614590375514719 cashProportion[1]
   - 0.0614590375514719 cashProportion[6] + 0.5643168827976154 x[1,1]
   + 0.3742240796509126 x[1,2] - 0.5643168827976154 x[6,1]
   - 0.3742240796509126 x[6,2] >= 0
 findWorstP[1,7]: z + 0.0614590375514719 cashProportion[1]
   - 0.0614590375514719 cashProportion[7] + 0.5643168827976154 x[1,1]
   + 0.3742240796509126 x[1,2] - 0.5643168827976154 x[7,1]
   - 0.3742240796509126 x[7,2] >= 0
 findWorstP[2,1]: z - 0.1886792452830189 cashProportion[1]
   + 0.1886792452830189 cashProportion[2] - 0.7766037735849056 x[1,1]
   - 0.0347169811320755 x[1,2] + 0.7766037735849056 x[2,1]
   + 0.0347169811320755 x[2,2] >= 0
 findWorstP[2,3]: z + 0.1886792452830189 cashProportion[2]
   - 0.1886792452830189 cashProportion[3] + 0.7766037735849056 x[2,1]
   + 0.0347169811320755 x[2,2] - 0.7766037735849056 x[3,1]
   - 0.0347169811320755 x[3,2] >= 0
 findWorstP[2,4]: z + 0.1886792452830189 cashProportion[2]
   - 0.1886792452830189 cashProportion[4] + 0.7766037735849056 x[2,1]
   + 0.0347169811320755 x[2,2] - 0.7766037735849056 x[4,1]
   - 0.0347169811320755 x[4,2] >= 0
 findWorstP[2,5]: z + 0.1886792452830189 cashProportion[2]
   - 0.1886792452830189 cashProportion[5] + 0.7766037735849056 x[2,1]
   + 0.0347169811320755 x[2,2] - 0.7766037735849056 x[5,1]
   - 0.0347169811320755 x[5,2] >= 0
 findWorstP[2,6]: z + 0.1886792452830189 cashProportion[2]
   - 0.1886792452830189 cashProportion[6] + 0.7766037735849056 x[2,1]
   + 0.0347169811320755 x[2,2] - 0.7766037735849056 x[6,1]
   - 0.0347169811320755 x[6,2] >= 0
 findWorstP[2,7]: z + 0.1886792452830189 cashProportion[2]
   - 0.1886792452830189 cashProportion[7] + 0.7766037735849056 x[2,1]
   + 0.0347169811320755 x[2,2] - 0.7766037735849056 x[7,1]
   - 0.0347169811320755 x[7,2] >= 0
 findWorstP[3,1]: z - 0.11768859597505 cashProportion[1]
   + 0.11768859597505 cashProportion[3] - 0.8027539131458162 x[1,1]
   - 0.0795574908791338 x[1,2] + 0.8027539131458162 x[3,1]
   + 0.0795574908791338 x[3,2] >= 0
 findWorstP[3,2]: z - 0.11768859597505 cashProportion[2]
   + 0.11768859597505 cashProportion[3] - 0.8027539131458162 x[2,1]
   - 0.0795574908791338 x[2,2] + 0.8027539131458162 x[3,1]
   + 0.0795574908791338 x[3,2] >= 0
 findWorstP[3,4]: z + 0.11768859597505 cashProportion[3]
   - 0.11768859597505 cashProportion[4] + 0.8027539131458162 x[3,1]
   + 0.0795574908791338 x[3,2] - 0.8027539131458162 x[4,1]
   - 0.0795574908791338 x[4,2] >= 0
 findWorstP[3,5]: z + 0.11768859597505 cashProportion[3]
   - 0.11768859597505 cashProportion[5] + 0.8027539131458162 x[3,1]
   + 0.0795574908791338 x[3,2] - 0.8027539131458162 x[5,1]
   - 0.0795574908791338 x[5,2] >= 0
 findWorstP[3,6]: z + 0.11768859597505 cashProportion[3]
   - 0.11768859597505 cashProportion[6] + 0.8027539131458162 x[3,1]
   + 0.0795574908791338 x[3,2] - 0.8027539131458162 x[6,1]
   - 0.0795574908791338 x[6,2] >= 0
 findWorstP[3,7]: z + 0.11768859597505 cashProportion[3]
   - 0.11768859597505 cashProportion[7] + 0.8027539131458162 x[3,1]
   + 0.0795574908791338 x[3,2] - 0.8027539131458162 x[7,1]
   - 0.0795574908791338 x[7,2] >= 0
 findWorstP[4,1]: z - 0.1251877816725088 cashProportion[1]
   + 0.1251877816725088 cashProportion[4] - 0.1551076614922384 x[1,1]
   - 0.7197045568352529 x[1,2] + 0.1551076614922384 x[4,1]
   + 0.7197045568352529 x[4,2] >= 0
 findWorstP[4,2]: z - 0.1251877816725088 cashProportion[2]
   + 0.1251877816725088 cashProportion[4] - 0.1551076614922384 x[2,1]
   - 0.7197045568352529 x[2,2] + 0.1551076614922384 x[4,1]
   + 0.7197045568352529 x[4,2] >= 0
 findWorstP[4,3]: z - 0.1251877816725088 cashProportion[3]
   + 0.1251877816725088 cashProportion[4] - 0.1551076614922384 x[3,1]
   - 0.7197045568352529 x[3,2] + 0.1551076614922384 x[4,1]
   + 0.7197045568352529 x[4,2] >= 0
 findWorstP[4,5]: z + 0.1251877816725088 cashProportion[4]
   - 0.1251877816725088 cashProportion[5] + 0.1551076614922384 x[4,1]
   + 0.7197045568352529 x[4,2] - 0.1551076614922384 x[5,1]
   - 0.7197045568352529 x[5,2] >= 0
 findWorstP[4,6]: z + 0.1251877816725088 cashProportion[4]
   - 0.1251877816725088 cashProportion[6] + 0.1551076614922384 x[4,1]
   + 0.7197045568352529 x[4,2] - 0.1551076614922384 x[6,1]
   - 0.7197045568352529 x[6,2] >= 0
 findWorstP[4,7]: z + 0.1251877816725088 cashProportion[4]
   - 0.1251877816725088 cashProportion[7] + 0.1551076614922384 x[4,1]
   + 0.7197045568352529 x[4,2] - 0.1551076614922384 x[7,1]
   - 0.7197045568352529 x[7,2] >= 0
 findWorstP[5,1]: z - 0.1264542235710673 cashProportion[1]
   + 0.1264542235710673 cashProportion[5] - 0.2076378351036925 x[1,1]
   - 0.6659079413252402 x[1,2] + 0.2076378351036925 x[5,1]
   + 0.6659079413252402 x[5,2] >= 0
 findWorstP[5,2]: z - 0.1264542235710673 cashProportion[2]
   + 0.1264542235710673 cashProportion[5] - 0.2076378351036925 x[2,1]
   - 0.6659079413252402 x[2,2] + 0.2076378351036925 x[5,1]
   + 0.6659079413252402 x[5,2] >= 0
 findWorstP[5,3]: z - 0.1264542235710673 cashProportion[3]
   + 0.1264542235710673 cashProportion[5] - 0.2076378351036925 x[3,1]
   - 0.6659079413252402 x[3,2] + 0.2076378351036925 x[5,1]
   + 0.6659079413252402 x[5,2] >= 0
 findWorstP[5,4]: z - 0.1264542235710673 cashProportion[4]
   + 0.1264542235710673 cashProportion[5] - 0.2076378351036925 x[4,1]
   - 0.6659079413252402 x[4,2] + 0.2076378351036925 x[5,1]
   + 0.6659079413252402 x[5,2] >= 0
 findWorstP[5,6]: z + 0.1264542235710673 cashProportion[5]
   - 0.1264542235710673 cashProportion[6] + 0.2076378351036925 x[5,1]
   + 0.6659079413252402 x[5,2] - 0.2076378351036925 x[6,1]
   - 0.6659079413252402 x[6,2] >= 0
 findWorstP[5,7]: z + 0.1264542235710673 cashProportion[5]
   - 0.1264542235710673 cashProportion[7] + 0.2076378351036925 x[5,1]
   + 0.6659079413252402 x[5,2] - 0.2076378351036925 x[7,1]
   - 0.6659079413252402 x[7,2] >= 0
 findWorstP[6,1]: z - 0.0659543595831684 cashProportion[1]
   + 0.0659543595831684 cashProportion[6] - 0.2828122938926263 x[1,1]
   - 0.6512333465242053 x[1,2] + 0.2828122938926263 x[6,1]
   + 0.6512333465242053 x[6,2] >= 0
 findWorstP[6,2]: z - 0.0659543595831684 cashProportion[2]
   + 0.0659543595831684 cashProportion[6] - 0.2828122938926263 x[2,1]
   - 0.6512333465242053 x[2,2] + 0.2828122938926263 x[6,1]
   + 0.6512333465242053 x[6,2] >= 0
 findWorstP[6,3]: z - 0.0659543595831684 cashProportion[3]
   + 0.0659543595831684 cashProportion[6] - 0.2828122938926263 x[3,1]
   - 0.6512333465242053 x[3,2] + 0.2828122938926263 x[6,1]
   + 0.6512333465242053 x[6,2] >= 0
 findWorstP[6,4]: z - 0.0659543595831684 cashProportion[4]
   + 0.0659543595831684 cashProportion[6] - 0.2828122938926263 x[4,1]
   - 0.6512333465242053 x[4,2] + 0.2828122938926263 x[6,1]
   + 0.6512333465242053 x[6,2] >= 0
 findWorstP[6,5]: z - 0.0659543595831684 cashProportion[5]
   + 0.0659543595831684 cashProportion[6] - 0.2828122938926263 x[5,1]
   - 0.6512333465242053 x[5,2] + 0.2828122938926263 x[6,1]
   + 0.6512333465242053 x[6,2] >= 0
 findWorstP[6,7]: z + 0.0659543595831684 cashProportion[6]
   - 0.0659543595831684 cashProportion[7] + 0.2828122938926263 x[6,1]
   + 0.6512333465242053 x[6,2] - 0.2828122938926263 x[7,1]
   - 0.6512333465242053 x[7,2] >= 0
 findWorstP[7,1]: z - 0.0548305735277991 cashProportion[1]
   + 0.0548305735277991 cashProportion[7] - 0.4441824761487005 x[1,1]
   - 0.5009869503235004 x[1,2] + 0.4441824761487005 x[7,1]
   + 0.5009869503235004 x[7,2] >= 0
 findWorstP[7,2]: z - 0.0548305735277991 cashProportion[2]
   + 0.0548305735277991 cashProportion[7] - 0.4441824761487005 x[2,1]
   - 0.5009869503235004 x[2,2] + 0.4441824761487005 x[7,1]
   + 0.5009869503235004 x[7,2] >= 0
 findWorstP[7,3]: z - 0.0548305735277991 cashProportion[3]
   + 0.0548305735277991 cashProportion[7] - 0.4441824761487005 x[3,1]
   - 0.5009869503235004 x[3,2] + 0.4441824761487005 x[7,1]
   + 0.5009869503235004 x[7,2] >= 0
 findWorstP[7,4]: z - 0.0548305735277991 cashProportion[4]
   + 0.0548305735277991 cashProportion[7] - 0.4441824761487005 x[4,1]
   - 0.5009869503235004 x[4,2] + 0.4441824761487005 x[7,1]
   + 0.5009869503235004 x[7,2] >= 0
 findWorstP[7,5]: z - 0.0548305735277991 cashProportion[5]
   + 0.0548305735277991 cashProportion[7] - 0.4441824761487005 x[5,1]
   - 0.5009869503235004 x[5,2] + 0.4441824761487005 x[7,1]
   + 0.5009869503235004 x[7,2] >= 0
 findWorstP[7,6]: z - 0.0548305735277991 cashProportion[6]
   + 0.0548305735277991 cashProportion[7] - 0.4441824761487005 x[6,1]
   - 0.5009869503235004 x[6,2] + 0.4441824761487005 x[7,1]
   + 0.5009869503235004 x[7,2] >= 0
Bounds
 z <= 1
 -infinity <= cashProportion[1] <= 1
 -infinity <= cashProportion[2] <= 1
 -infinity <= cashProportion[3] <= 1
 -infinity <= cashProportion[4] <= 1
 -infinity <= cashProportion[5] <= 1
 -infinity <= cashProportion[6] <= 1
 -infinity <= cashProportion[7] <= 1
Binaries
 x[1,1] x[1,2] x[2,1] x[2,2] x[3,1] x[3,2] x[4,1] x[4,2] x[5,1] x[5,2]
 x[6,1] x[6,2] x[7,1] x[7,2]
End
