data/mps_files/q3/122_1.mps
NAME foo
ROWS
 N  OBJ
 E  allocateEach[1]
 E  allocateEach[2]
 E  allocateAllCash
 G  findWorstP[1,2]
 G  findWorstP[1,3]
 G  findWorstP[1,4]
 G  findWorstP[1,5]
 G  findWorstP[1,6]
 G  findWorstP[1,7]
 G  findWorstP[2,1]
 G  findWorstP[2,3]
 G  findWorstP[2,4]
 G  findWorstP[2,5]
 G  findWorstP[2,6]
 G  findWorstP[2,7]
 G  findWorstP[3,1]
 G  findWorstP[3,2]
 G  findWorstP[3,4]
 G  findWorstP[3,5]
 G  findWorstP[3,6]
 G  findWorstP[3,7]
 G  findWorstP[4,1]
 G  findWorstP[4,2]
 G  findWorstP[4,3]
 G  findWorstP[4,5]
 G  findWorstP[4,6]
 G  findWorstP[4,7]
 G  findWorstP[5,1]
 G  findWorstP[5,2]
 G  findWorstP[5,3]
 G  findWorstP[5,4]
 G  findWorstP[5,6]
 G  findWorstP[5,7]
 G  findWorstP[6,1]
 G  findWorstP[6,2]
 G  findWorstP[6,3]
 G  findWorstP[6,4]
 G  findWorstP[6,5]
 G  findWorstP[6,7]
 G  findWorstP[7,1]
 G  findWorstP[7,2]
 G  findWorstP[7,3]
 G  findWorstP[7,4]
 G  findWorstP[7,5]
 G  findWorstP[7,6]
COLUMNS
    z         OBJ       1
    z         findWorstP[1,2]  1
    z         findWorstP[1,3]  1
    z         findWorstP[1,4]  1
    z         findWorstP[1,5]  1
    z         findWorstP[1,6]  1
    z         findWorstP[1,7]  1
    z         findWorstP[2,1]  1
    z         findWorstP[2,3]  1
    z         findWorstP[2,4]  1
    z         findWorstP[2,5]  1
    z         findWorstP[2,6]  1
    z         findWorstP[2,7]  1
    z         findWorstP[3,1]  1
    z         findWorstP[3,2]  1
    z         findWorstP[3,4]  1
    z         findWorstP[3,5]  1
    z         findWorstP[3,6]  1
    z         findWorstP[3,7]  1
    z         findWorstP[4,1]  1
    z         findWorstP[4,2]  1
    z         findWorstP[4,3]  1
    z         findWorstP[4,5]  1
    z         findWorstP[4,6]  1
    z         findWorstP[4,7]  1
    z         findWorstP[5,1]  1
    z         findWorstP[5,2]  1
    z         findWorstP[5,3]  1
    z         findWorstP[5,4]  1
    z         findWorstP[5,6]  1
    z         findWorstP[5,7]  1
    z         findWorstP[6,1]  1
    z         findWorstP[6,2]  1
    z         findWorstP[6,3]  1
    z         findWorstP[6,4]  1
    z         findWorstP[6,5]  1
    z         findWorstP[6,7]  1
    z         findWorstP[7,1]  1
    z         findWorstP[7,2]  1
    z         findWorstP[7,3]  1
    z         findWorstP[7,4]  1
    z         findWorstP[7,5]  1
    z         findWorstP[7,6]  1
    cashProportion[1]  allocateAllCash  1
    cashProportion[1]  findWorstP[1,2]  6.1459037551471946e-02
    cashProportion[1]  findWorstP[1,3]  6.1459037551471946e-02
    cashProportion[1]  findWorstP[1,4]  6.1459037551471946e-02
    cashProportion[1]  findWorstP[1,5]  6.1459037551471946e-02
    cashProportion[1]  findWorstP[1,6]  6.1459037551471946e-02
    cashProportion[1]  findWorstP[1,7]  6.1459037551471946e-02
    cashProportion[1]  findWorstP[2,1]  -1.8867924528301885e-01
    cashProportion[1]  findWorstP[3,1]  -1.1768859597505002e-01
    cashProportion[1]  findWorstP[4,1]  -1.2518778167250877e-01
    cashProportion[1]  findWorstP[5,1]  -1.2645422357106728e-01
    cashProportion[1]  findWorstP[6,1]  -6.5954359583168448e-02
    cashProportion[1]  findWorstP[7,1]  -5.4830573527799104e-02
    cashProportion[2]  allocateAllCash  1
    cashProportion[2]  findWorstP[1,2]  -6.1459037551471946e-02
    cashProportion[2]  findWorstP[2,1]  1.8867924528301885e-01
    cashProportion[2]  findWorstP[2,3]  1.8867924528301885e-01
    cashProportion[2]  findWorstP[2,4]  1.8867924528301885e-01
    cashProportion[2]  findWorstP[2,5]  1.8867924528301885e-01
    cashProportion[2]  findWorstP[2,6]  1.8867924528301885e-01
    cashProportion[2]  findWorstP[2,7]  1.8867924528301885e-01
    cashProportion[2]  findWorstP[3,2]  -1.1768859597505002e-01
    cashProportion[2]  findWorstP[4,2]  -1.2518778167250877e-01
    cashProportion[2]  findWorstP[5,2]  -1.2645422357106728e-01
    cashProportion[2]  findWorstP[6,2]  -6.5954359583168448e-02
    cashProportion[2]  findWorstP[7,2]  -5.4830573527799104e-02
    cashProportion[3]  allocateAllCash  1
    cashProportion[3]  findWorstP[1,3]  -6.1459037551471946e-02
    cashProportion[3]  findWorstP[2,3]  -1.8867924528301885e-01
    cashProportion[3]  findWorstP[3,1]  1.1768859597505002e-01
    cashProportion[3]  findWorstP[3,2]  1.1768859597505002e-01
    cashProportion[3]  findWorstP[3,4]  1.1768859597505002e-01
    cashProportion[3]  findWorstP[3,5]  1.1768859597505002e-01
    cashProportion[3]  findWorstP[3,6]  1.1768859597505002e-01
    cashProportion[3]  findWorstP[3,7]  1.1768859597505002e-01
    cashProportion[3]  findWorstP[4,3]  -1.2518778167250877e-01
    cashProportion[3]  findWorstP[5,3]  -1.2645422357106728e-01
    cashProportion[3]  findWorstP[6,3]  -6.5954359583168448e-02
    cashProportion[3]  findWorstP[7,3]  -5.4830573527799104e-02
    cashProportion[4]  allocateAllCash  1
    cashProportion[4]  findWorstP[1,4]  -6.1459037551471946e-02
    cashProportion[4]  findWorstP[2,4]  -1.8867924528301885e-01
    cashProportion[4]  findWorstP[3,4]  -1.1768859597505002e-01
    cashProportion[4]  findWorstP[4,1]  1.2518778167250877e-01
    cashProportion[4]  findWorstP[4,2]  1.2518778167250877e-01
    cashProportion[4]  findWorstP[4,3]  1.2518778167250877e-01
    cashProportion[4]  findWorstP[4,5]  1.2518778167250877e-01
    cashProportion[4]  findWorstP[4,6]  1.2518778167250877e-01
    cashProportion[4]  findWorstP[4,7]  1.2518778167250877e-01
    cashProportion[4]  findWorstP[5,4]  -1.2645422357106728e-01
    cashProportion[4]  findWorstP[6,4]  -6.5954359583168448e-02
    cashProportion[4]  findWorstP[7,4]  -5.4830573527799104e-02
    cashProportion[5]  allocateAllCash  1
    cashProportion[5]  findWorstP[1,5]  -6.1459037551471946e-02
    cashProportion[5]  findWorstP[2,5]  -1.8867924528301885e-01
    cashProportion[5]  findWorstP[3,5]  -1.1768859597505002e-01
    cashProportion[5]  findWorstP[4,5]  -1.2518778167250877e-01
    cashProportion[5]  findWorstP[5,1]  1.2645422357106728e-01
    cashProportion[5]  findWorstP[5,2]  1.2645422357106728e-01
    cashProportion[5]  findWorstP[5,3]  1.2645422357106728e-01
    cashProportion[5]  findWorstP[5,4]  1.2645422357106728e-01
    cashProportion[5]  findWorstP[5,6]  1.2645422357106728e-01
    cashProportion[5]  findWorstP[5,7]  1.2645422357106728e-01
    cashProportion[5]  findWorstP[6,5]  -6.5954359583168448e-02
    cashProportion[5]  findWorstP[7,5]  -5.4830573527799104e-02
    cashProportion[6]  allocateAllCash  1
    cashProportion[6]  findWorstP[1,6]  -6.1459037551471946e-02
    cashProportion[6]  findWorstP[2,6]  -1.8867924528301885e-01
    cashProportion[6]  findWorstP[3,6]  -1.1768859597505002e-01
    cashProportion[6]  findWorstP[4,6]  -1.2518778167250877e-01
    cashProportion[6]  findWorstP[5,6]  -1.2645422357106728e-01
    cashProportion[6]  findWorstP[6,1]  6.5954359583168448e-02
    cashProportion[6]  findWorstP[6,2]  6.5954359583168448e-02
    cashProportion[6]  findWorstP[6,3]  6.5954359583168448e-02
    cashProportion[6]  findWorstP[6,4]  6.5954359583168448e-02
    cashProportion[6]  findWorstP[6,5]  6.5954359583168448e-02
    cashProportion[6]  findWorstP[6,7]  6.5954359583168448e-02
    cashProportion[6]  findWorstP[7,6]  -5.4830573527799104e-02
    cashProportion[7]  allocateAllCash  1
    cashProportion[7]  findWorstP[1,7]  -6.1459037551471946e-02
    cashProportion[7]  findWorstP[2,7]  -1.8867924528301885e-01
    cashProportion[7]  findWorstP[3,7]  -1.1768859597505002e-01
    cashProportion[7]  findWorstP[4,7]  -1.2518778167250877e-01
    cashProportion[7]  findWorstP[5,7]  -1.2645422357106728e-01
    cashProportion[7]  findWorstP[6,7]  -6.5954359583168448e-02
    cashProportion[7]  findWorstP[7,1]  5.4830573527799104e-02
    cashProportion[7]  findWorstP[7,2]  5.4830573527799104e-02
    cashProportion[7]  findWorstP[7,3]  5.4830573527799104e-02
    cashProportion[7]  findWorstP[7,4]  5.4830573527799104e-02
    cashProportion[7]  findWorstP[7,5]  5.4830573527799104e-02
    cashProportion[7]  findWorstP[7,6]  5.4830573527799104e-02
    MARKER    'MARKER'                 'INTORG'
    x[1,1]    allocateEach[1]  1
    x[1,1]    findWorstP[1,2]  5.6431688279761538e-01
    x[1,1]    findWorstP[1,3]  5.6431688279761538e-01
    x[1,1]    findWorstP[1,4]  5.6431688279761538e-01
    x[1,1]    findWorstP[1,5]  5.6431688279761538e-01
    x[1,1]    findWorstP[1,6]  5.6431688279761538e-01
    x[1,1]    findWorstP[1,7]  5.6431688279761538e-01
    x[1,1]    findWorstP[2,1]  -7.7660377358490562e-01
    x[1,1]    findWorstP[3,1]  -8.0275391314581623e-01
    x[1,1]    findWorstP[4,1]  -1.5510766149223837e-01
    x[1,1]    findWorstP[5,1]  -2.0763783510369249e-01
    x[1,1]    findWorstP[6,1]  -2.8281229389262630e-01
    x[1,1]    findWorstP[7,1]  -4.4418247614870049e-01
    x[1,2]    allocateEach[2]  1
    x[1,2]    findWorstP[1,2]  3.7422407965091264e-01
    x[1,2]    findWorstP[1,3]  3.7422407965091264e-01
    x[1,2]    findWorstP[1,4]  3.7422407965091264e-01
    x[1,2]    findWorstP[1,5]  3.7422407965091264e-01
    x[1,2]    findWorstP[1,6]  3.7422407965091264e-01
    x[1,2]    findWorstP[1,7]  3.7422407965091264e-01
    x[1,2]    findWorstP[2,1]  -3.4716981132075470e-02
    x[1,2]    findWorstP[3,1]  -0.0795574908791338
    x[1,2]    findWorstP[4,1]  -7.1970455683525292e-01
    x[1,2]    findWorstP[5,1]  -6.6590794132524023e-01
    x[1,2]    findWorstP[6,1]  -6.5123334652420528e-01
    x[1,2]    findWorstP[7,1]  -5.0098695032350038e-01
    x[2,1]    allocateEach[1]  1
    x[2,1]    findWorstP[1,2]  -5.6431688279761538e-01
    x[2,1]    findWorstP[2,1]  7.7660377358490562e-01
    x[2,1]    findWorstP[2,3]  7.7660377358490562e-01
    x[2,1]    findWorstP[2,4]  7.7660377358490562e-01
    x[2,1]    findWorstP[2,5]  7.7660377358490562e-01
    x[2,1]    findWorstP[2,6]  7.7660377358490562e-01
    x[2,1]    findWorstP[2,7]  7.7660377358490562e-01
    x[2,1]    findWorstP[3,2]  -8.0275391314581623e-01
    x[2,1]    findWorstP[4,2]  -1.5510766149223837e-01
    x[2,1]    findWorstP[5,2]  -2.0763783510369249e-01
    x[2,1]    findWorstP[6,2]  -2.8281229389262630e-01
    x[2,1]    findWorstP[7,2]  -4.4418247614870049e-01
    x[2,2]    allocateEach[2]  1
    x[2,2]    findWorstP[1,2]  -3.7422407965091264e-01
    x[2,2]    findWorstP[2,1]  3.4716981132075470e-02
    x[2,2]    findWorstP[2,3]  3.4716981132075470e-02
    x[2,2]    findWorstP[2,4]  3.4716981132075470e-02
    x[2,2]    findWorstP[2,5]  3.4716981132075470e-02
    x[2,2]    findWorstP[2,6]  3.4716981132075470e-02
    x[2,2]    findWorstP[2,7]  3.4716981132075470e-02
    x[2,2]    findWorstP[3,2]  -0.0795574908791338
    x[2,2]    findWorstP[4,2]  -7.1970455683525292e-01
    x[2,2]    findWorstP[5,2]  -6.6590794132524023e-01
    x[2,2]    findWorstP[6,2]  -6.5123334652420528e-01
    x[2,2]    findWorstP[7,2]  -5.0098695032350038e-01
    x[3,1]    allocateEach[1]  1
    x[3,1]    findWorstP[1,3]  -5.6431688279761538e-01
    x[3,1]    findWorstP[2,3]  -7.7660377358490562e-01
    x[3,1]    findWorstP[3,1]  8.0275391314581623e-01
    x[3,1]    findWorstP[3,2]  8.0275391314581623e-01
    x[3,1]    findWorstP[3,4]  8.0275391314581623e-01
    x[3,1]    findWorstP[3,5]  8.0275391314581623e-01
    x[3,1]    findWorstP[3,6]  8.0275391314581623e-01
    x[3,1]    findWorstP[3,7]  8.0275391314581623e-01
    x[3,1]    findWorstP[4,3]  -1.5510766149223837e-01
    x[3,1]    findWorstP[5,3]  -2.0763783510369249e-01
    x[3,1]    findWorstP[6,3]  -2.8281229389262630e-01
    x[3,1]    findWorstP[7,3]  -4.4418247614870049e-01
    x[3,2]    allocateEach[2]  1
    x[3,2]    findWorstP[1,3]  -3.7422407965091264e-01
    x[3,2]    findWorstP[2,3]  -3.4716981132075470e-02
    x[3,2]    findWorstP[3,1]  0.0795574908791338
    x[3,2]    findWorstP[3,2]  0.0795574908791338
    x[3,2]    findWorstP[3,4]  0.0795574908791338
    x[3,2]    findWorstP[3,5]  0.0795574908791338
    x[3,2]    findWorstP[3,6]  0.0795574908791338
    x[3,2]    findWorstP[3,7]  0.0795574908791338
    x[3,2]    findWorstP[4,3]  -7.1970455683525292e-01
    x[3,2]    findWorstP[5,3]  -6.6590794132524023e-01
    x[3,2]    findWorstP[6,3]  -6.5123334652420528e-01
    x[3,2]    findWorstP[7,3]  -5.0098695032350038e-01
    x[4,1]    allocateEach[1]  1
    x[4,1]    findWorstP[1,4]  -5.6431688279761538e-01
    x[4,1]    findWorstP[2,4]  -7.7660377358490562e-01
    x[4,1]    findWorstP[3,4]  -8.0275391314581623e-01
    x[4,1]    findWorstP[4,1]  1.5510766149223837e-01
    x[4,1]    findWorstP[4,2]  1.5510766149223837e-01
    x[4,1]    findWorstP[4,3]  1.5510766149223837e-01
    x[4,1]    findWorstP[4,5]  1.5510766149223837e-01
    x[4,1]    findWorstP[4,6]  1.5510766149223837e-01
    x[4,1]    findWorstP[4,7]  1.5510766149223837e-01
    x[4,1]    findWorstP[5,4]  -2.0763783510369249e-01
    x[4,1]    findWorstP[6,4]  -2.8281229389262630e-01
    x[4,1]    findWorstP[7,4]  -4.4418247614870049e-01
    x[4,2]    allocateEach[2]  1
    x[4,2]    findWorstP[1,4]  -3.7422407965091264e-01
    x[4,2]    findWorstP[2,4]  -3.4716981132075470e-02
    x[4,2]    findWorstP[3,4]  -0.0795574908791338
    x[4,2]    findWorstP[4,1]  7.1970455683525292e-01
    x[4,2]    findWorstP[4,2]  7.1970455683525292e-01
    x[4,2]    findWorstP[4,3]  7.1970455683525292e-01
    x[4,2]    findWorstP[4,5]  7.1970455683525292e-01
    x[4,2]    findWorstP[4,6]  7.1970455683525292e-01
    x[4,2]    findWorstP[4,7]  7.1970455683525292e-01
    x[4,2]    findWorstP[5,4]  -6.6590794132524023e-01
    x[4,2]    findWorstP[6,4]  -6.5123334652420528e-01
    x[4,2]    findWorstP[7,4]  -5.0098695032350038e-01
    x[5,1]    allocateEach[1]  1
    x[5,1]    findWorstP[1,5]  -5.6431688279761538e-01
    x[5,1]    findWorstP[2,5]  -7.7660377358490562e-01
    x[5,1]    findWorstP[3,5]  -8.0275391314581623e-01
    x[5,1]    findWorstP[4,5]  -1.5510766149223837e-01
    x[5,1]    findWorstP[5,1]  2.0763783510369249e-01
    x[5,1]    findWorstP[5,2]  2.0763783510369249e-01
    x[5,1]    findWorstP[5,3]  2.0763783510369249e-01
    x[5,1]    findWorstP[5,4]  2.0763783510369249e-01
    x[5,1]    findWorstP[5,6]  2.0763783510369249e-01
    x[5,1]    findWorstP[5,7]  2.0763783510369249e-01
    x[5,1]    findWorstP[6,5]  -2.8281229389262630e-01
    x[5,1]    findWorstP[7,5]  -4.4418247614870049e-01
    x[5,2]    allocateEach[2]  1
    x[5,2]    findWorstP[1,5]  -3.7422407965091264e-01
    x[5,2]    findWorstP[2,5]  -3.4716981132075470e-02
    x[5,2]    findWorstP[3,5]  -0.0795574908791338
    x[5,2]    findWorstP[4,5]  -7.1970455683525292e-01
    x[5,2]    findWorstP[5,1]  6.6590794132524023e-01
    x[5,2]    findWorstP[5,2]  6.6590794132524023e-01
    x[5,2]    findWorstP[5,3]  6.6590794132524023e-01
    x[5,2]    findWorstP[5,4]  6.6590794132524023e-01
    x[5,2]    findWorstP[5,6]  6.6590794132524023e-01
    x[5,2]    findWorstP[5,7]  6.6590794132524023e-01
    x[5,2]    findWorstP[6,5]  -6.5123334652420528e-01
    x[5,2]    findWorstP[7,5]  -5.0098695032350038e-01
    x[6,1]    allocateEach[1]  1
    x[6,1]    findWorstP[1,6]  -5.6431688279761538e-01
    x[6,1]    findWorstP[2,6]  -7.7660377358490562e-01
    x[6,1]    findWorstP[3,6]  -8.0275391314581623e-01
    x[6,1]    findWorstP[4,6]  -1.5510766149223837e-01
    x[6,1]    findWorstP[5,6]  -2.0763783510369249e-01
    x[6,1]    findWorstP[6,1]  2.8281229389262630e-01
    x[6,1]    findWorstP[6,2]  2.8281229389262630e-01
    x[6,1]    findWorstP[6,3]  2.8281229389262630e-01
    x[6,1]    findWorstP[6,4]  2.8281229389262630e-01
    x[6,1]    findWorstP[6,5]  2.8281229389262630e-01
    x[6,1]    findWorstP[6,7]  2.8281229389262630e-01
    x[6,1]    findWorstP[7,6]  -4.4418247614870049e-01
    x[6,2]    allocateEach[2]  1
    x[6,2]    findWorstP[1,6]  -3.7422407965091264e-01
    x[6,2]    findWorstP[2,6]  -3.4716981132075470e-02
    x[6,2]    findWorstP[3,6]  -0.0795574908791338
    x[6,2]    findWorstP[4,6]  -7.1970455683525292e-01
    x[6,2]    findWorstP[5,6]  -6.6590794132524023e-01
    x[6,2]    findWorstP[6,1]  6.5123334652420528e-01
    x[6,2]    findWorstP[6,2]  6.5123334652420528e-01
    x[6,2]    findWorstP[6,3]  6.5123334652420528e-01
    x[6,2]    findWorstP[6,4]  6.5123334652420528e-01
    x[6,2]    findWorstP[6,5]  6.5123334652420528e-01
    x[6,2]    findWorstP[6,7]  6.5123334652420528e-01
    x[6,2]    findWorstP[7,6]  -5.0098695032350038e-01
    x[7,1]    allocateEach[1]  1
    x[7,1]    findWorstP[1,7]  -5.6431688279761538e-01
    x[7,1]    findWorstP[2,7]  -7.7660377358490562e-01
    x[7,1]    findWorstP[3,7]  -8.0275391314581623e-01
    x[7,1]    findWorstP[4,7]  -1.5510766149223837e-01
    x[7,1]    findWorstP[5,7]  -2.0763783510369249e-01
    x[7,1]    findWorstP[6,7]  -2.8281229389262630e-01
    x[7,1]    findWorstP[7,1]  4.4418247614870049e-01
    x[7,1]    findWorstP[7,2]  4.4418247614870049e-01
    x[7,1]    findWorstP[7,3]  4.4418247614870049e-01
    x[7,1]    findWorstP[7,4]  4.4418247614870049e-01
    x[7,1]    findWorstP[7,5]  4.4418247614870049e-01
    x[7,1]    findWorstP[7,6]  4.4418247614870049e-01
    x[7,2]    allocateEach[2]  1
    x[7,2]    findWorstP[1,7]  -3.7422407965091264e-01
    x[7,2]    findWorstP[2,7]  -3.4716981132075470e-02
    x[7,2]    findWorstP[3,7]  -0.0795574908791338
    x[7,2]    findWorstP[4,7]  -7.1970455683525292e-01
    x[7,2]    findWorstP[5,7]  -6.6590794132524023e-01
    x[7,2]    findWorstP[6,7]  -6.5123334652420528e-01
    x[7,2]    findWorstP[7,1]  5.0098695032350038e-01
    x[7,2]    findWorstP[7,2]  5.0098695032350038e-01
    x[7,2]    findWorstP[7,3]  5.0098695032350038e-01
    x[7,2]    findWorstP[7,4]  5.0098695032350038e-01
    x[7,2]    findWorstP[7,5]  5.0098695032350038e-01
    x[7,2]    findWorstP[7,6]  5.0098695032350038e-01
    MARKER    'MARKER'                 'INTEND'
RHS
    RHS1      allocateEach[1]  1
    RHS1      allocateEach[2]  1
    RHS1      allocateAllCash  1
BOUNDS
 UP BND1      z         1
 MI BND1      cashProportion[1]
 UP BND1      cashProportion[1]  1
 MI BND1      cashProportion[2]
 UP BND1      cashProportion[2]  1
 MI BND1      cashProportion[3]
 UP BND1      cashProportion[3]  1
 MI BND1      cashProportion[4]
 UP BND1      cashProportion[4]  1
 MI BND1      cashProportion[5]
 UP BND1      cashProportion[5]  1
 MI BND1      cashProportion[6]
 UP BND1      cashProportion[6]  1
 MI BND1      cashProportion[7]
 UP BND1      cashProportion[7]  1
 BV BND1      x[1,1]  
 BV BND1      x[1,2]  
 BV BND1      x[2,1]  
 BV BND1      x[2,2]  
 BV BND1      x[3,1]  
 BV BND1      x[3,2]  
 BV BND1      x[4,1]  
 BV BND1      x[4,2]  
 BV BND1      x[5,1]  
 BV BND1      x[5,2]  
 BV BND1      x[6,1]  
 BV BND1      x[6,2]  
 BV BND1      x[7,1]  
 BV BND1      x[7,2]  
ENDATA
